\ This file has been generated by DOcplex
\ ENCODING=ISO-8859-1
\Problem name: random_problem.lp

Minimize
 obj: 33 x0 + 66 x1 + 47 x2 + 42 x3 + 49 x4 + 15 x5 + 90 x6 + 79 x7 + 25 x8
      + 16 x9 + 50 x10 + 37 x11
Subject To
 c0: x0 + x2 + x3 + x5 + x7 + x11 = 1
 c1: x0 + x1 + x4 + x6 = 1
 c2: x6 + x7 + x8 + x9 + x10 + x11 = 1
 c3: x4 + x7 + x11 = 1

Bounds
 0 <= x0 <= 1
 0 <= x1 <= 1
 0 <= x2 <= 1
 0 <= x3 <= 1
 0 <= x4 <= 1
 0 <= x5 <= 1
 0 <= x6 <= 1
 0 <= x7 <= 1
 0 <= x8 <= 1
 0 <= x9 <= 1
 0 <= x10 <= 1
 0 <= x11 <= 1

Binaries
 x0 x1 x2 x3 x4 x5 x6 x7 x8 x9 x10 x11
End
